TOUR_SECTION
1
103
59
115
141
163
63
144
200
14
86
69
147
152
29
37
34
193
107
39
124
42
22
145
127
88
114
166
67
94
32
31
45
16
198
5
187
80
116
160
185
190
135
71
36
15
137
100
128
104
179
167
85
55
150
117
153
139
87
49
72
157
56
76
120
171
136
17
53
148
172
133
62
40
188
91
46
195
194
8
97
41
44
92
81
82
180
43
66
57
19
38
101
58
173
3
30
119
73
111
9
18
118
183
6
54
64
4
126
184
25
174
182
165
65
33
52
84
113
102
7
112
146
197
95
181
2
60
89
35
151
164
83
169
162
96
130
191
178
122
134
93
168
68
61
196
98
51
138
10
155
154
199
74
110
50
175
189
27
159
161
23
176
201
121
77
123
177
20
11
21
75
78
156
12
79
47
149
48
186
108
140
28
131
109
125
99
13
70
24
26
142
132
143
90
106
170
105
192
129
158
-1
EOF